c *********************************
c * Circuit generated by BenCGen
c *
c * Parity_305
c *
c * Ports with 1 gate(s): 1
c * Ports with 2 gate(s): 305
c * Total gates: 306
c *********************************
p cnf 611 1221
1 308 0
-1 -308 0
1 -307 0
308 -307 0
-1 -308 307 0
1 2 -309 0
-1 2 309 0
1 -2 309 0
-1 -2 -309 0
3 4 -310 0
-3 4 310 0
3 -4 310 0
-3 -4 -310 0
5 6 -311 0
-5 6 311 0
5 -6 311 0
-5 -6 -311 0
7 8 -312 0
-7 8 312 0
7 -8 312 0
-7 -8 -312 0
9 10 -313 0
-9 10 313 0
9 -10 313 0
-9 -10 -313 0
11 12 -314 0
-11 12 314 0
11 -12 314 0
-11 -12 -314 0
13 14 -315 0
-13 14 315 0
13 -14 315 0
-13 -14 -315 0
15 16 -316 0
-15 16 316 0
15 -16 316 0
-15 -16 -316 0
17 18 -317 0
-17 18 317 0
17 -18 317 0
-17 -18 -317 0
19 20 -318 0
-19 20 318 0
19 -20 318 0
-19 -20 -318 0
21 22 -319 0
-21 22 319 0
21 -22 319 0
-21 -22 -319 0
23 24 -320 0
-23 24 320 0
23 -24 320 0
-23 -24 -320 0
25 26 -321 0
-25 26 321 0
25 -26 321 0
-25 -26 -321 0
27 28 -322 0
-27 28 322 0
27 -28 322 0
-27 -28 -322 0
29 30 -323 0
-29 30 323 0
29 -30 323 0
-29 -30 -323 0
31 32 -324 0
-31 32 324 0
31 -32 324 0
-31 -32 -324 0
33 34 -325 0
-33 34 325 0
33 -34 325 0
-33 -34 -325 0
35 36 -326 0
-35 36 326 0
35 -36 326 0
-35 -36 -326 0
37 38 -327 0
-37 38 327 0
37 -38 327 0
-37 -38 -327 0
39 40 -328 0
-39 40 328 0
39 -40 328 0
-39 -40 -328 0
41 42 -329 0
-41 42 329 0
41 -42 329 0
-41 -42 -329 0
43 44 -330 0
-43 44 330 0
43 -44 330 0
-43 -44 -330 0
45 46 -331 0
-45 46 331 0
45 -46 331 0
-45 -46 -331 0
47 48 -332 0
-47 48 332 0
47 -48 332 0
-47 -48 -332 0
49 50 -333 0
-49 50 333 0
49 -50 333 0
-49 -50 -333 0
51 52 -334 0
-51 52 334 0
51 -52 334 0
-51 -52 -334 0
53 54 -335 0
-53 54 335 0
53 -54 335 0
-53 -54 -335 0
55 56 -336 0
-55 56 336 0
55 -56 336 0
-55 -56 -336 0
57 58 -337 0
-57 58 337 0
57 -58 337 0
-57 -58 -337 0
59 60 -338 0
-59 60 338 0
59 -60 338 0
-59 -60 -338 0
61 62 -339 0
-61 62 339 0
61 -62 339 0
-61 -62 -339 0
63 64 -340 0
-63 64 340 0
63 -64 340 0
-63 -64 -340 0
65 66 -341 0
-65 66 341 0
65 -66 341 0
-65 -66 -341 0
67 68 -342 0
-67 68 342 0
67 -68 342 0
-67 -68 -342 0
69 70 -343 0
-69 70 343 0
69 -70 343 0
-69 -70 -343 0
71 72 -344 0
-71 72 344 0
71 -72 344 0
-71 -72 -344 0
73 74 -345 0
-73 74 345 0
73 -74 345 0
-73 -74 -345 0
75 76 -346 0
-75 76 346 0
75 -76 346 0
-75 -76 -346 0
77 78 -347 0
-77 78 347 0
77 -78 347 0
-77 -78 -347 0
79 80 -348 0
-79 80 348 0
79 -80 348 0
-79 -80 -348 0
81 82 -349 0
-81 82 349 0
81 -82 349 0
-81 -82 -349 0
83 84 -350 0
-83 84 350 0
83 -84 350 0
-83 -84 -350 0
85 86 -351 0
-85 86 351 0
85 -86 351 0
-85 -86 -351 0
87 88 -352 0
-87 88 352 0
87 -88 352 0
-87 -88 -352 0
89 90 -353 0
-89 90 353 0
89 -90 353 0
-89 -90 -353 0
91 92 -354 0
-91 92 354 0
91 -92 354 0
-91 -92 -354 0
93 94 -355 0
-93 94 355 0
93 -94 355 0
-93 -94 -355 0
95 96 -356 0
-95 96 356 0
95 -96 356 0
-95 -96 -356 0
97 98 -357 0
-97 98 357 0
97 -98 357 0
-97 -98 -357 0
99 100 -358 0
-99 100 358 0
99 -100 358 0
-99 -100 -358 0
101 102 -359 0
-101 102 359 0
101 -102 359 0
-101 -102 -359 0
103 104 -360 0
-103 104 360 0
103 -104 360 0
-103 -104 -360 0
105 106 -361 0
-105 106 361 0
105 -106 361 0
-105 -106 -361 0
107 108 -362 0
-107 108 362 0
107 -108 362 0
-107 -108 -362 0
109 110 -363 0
-109 110 363 0
109 -110 363 0
-109 -110 -363 0
111 112 -364 0
-111 112 364 0
111 -112 364 0
-111 -112 -364 0
113 114 -365 0
-113 114 365 0
113 -114 365 0
-113 -114 -365 0
115 116 -366 0
-115 116 366 0
115 -116 366 0
-115 -116 -366 0
117 118 -367 0
-117 118 367 0
117 -118 367 0
-117 -118 -367 0
119 120 -368 0
-119 120 368 0
119 -120 368 0
-119 -120 -368 0
121 122 -369 0
-121 122 369 0
121 -122 369 0
-121 -122 -369 0
123 124 -370 0
-123 124 370 0
123 -124 370 0
-123 -124 -370 0
125 126 -371 0
-125 126 371 0
125 -126 371 0
-125 -126 -371 0
127 128 -372 0
-127 128 372 0
127 -128 372 0
-127 -128 -372 0
129 130 -373 0
-129 130 373 0
129 -130 373 0
-129 -130 -373 0
131 132 -374 0
-131 132 374 0
131 -132 374 0
-131 -132 -374 0
133 134 -375 0
-133 134 375 0
133 -134 375 0
-133 -134 -375 0
135 136 -376 0
-135 136 376 0
135 -136 376 0
-135 -136 -376 0
137 138 -377 0
-137 138 377 0
137 -138 377 0
-137 -138 -377 0
139 140 -378 0
-139 140 378 0
139 -140 378 0
-139 -140 -378 0
141 142 -379 0
-141 142 379 0
141 -142 379 0
-141 -142 -379 0
143 144 -380 0
-143 144 380 0
143 -144 380 0
-143 -144 -380 0
145 146 -381 0
-145 146 381 0
145 -146 381 0
-145 -146 -381 0
147 148 -382 0
-147 148 382 0
147 -148 382 0
-147 -148 -382 0
149 150 -383 0
-149 150 383 0
149 -150 383 0
-149 -150 -383 0
151 152 -384 0
-151 152 384 0
151 -152 384 0
-151 -152 -384 0
153 154 -385 0
-153 154 385 0
153 -154 385 0
-153 -154 -385 0
155 156 -386 0
-155 156 386 0
155 -156 386 0
-155 -156 -386 0
157 158 -387 0
-157 158 387 0
157 -158 387 0
-157 -158 -387 0
159 160 -388 0
-159 160 388 0
159 -160 388 0
-159 -160 -388 0
161 162 -389 0
-161 162 389 0
161 -162 389 0
-161 -162 -389 0
163 164 -390 0
-163 164 390 0
163 -164 390 0
-163 -164 -390 0
165 166 -391 0
-165 166 391 0
165 -166 391 0
-165 -166 -391 0
167 168 -392 0
-167 168 392 0
167 -168 392 0
-167 -168 -392 0
169 170 -393 0
-169 170 393 0
169 -170 393 0
-169 -170 -393 0
171 172 -394 0
-171 172 394 0
171 -172 394 0
-171 -172 -394 0
173 174 -395 0
-173 174 395 0
173 -174 395 0
-173 -174 -395 0
175 176 -396 0
-175 176 396 0
175 -176 396 0
-175 -176 -396 0
177 178 -397 0
-177 178 397 0
177 -178 397 0
-177 -178 -397 0
179 180 -398 0
-179 180 398 0
179 -180 398 0
-179 -180 -398 0
181 182 -399 0
-181 182 399 0
181 -182 399 0
-181 -182 -399 0
183 184 -400 0
-183 184 400 0
183 -184 400 0
-183 -184 -400 0
185 186 -401 0
-185 186 401 0
185 -186 401 0
-185 -186 -401 0
187 188 -402 0
-187 188 402 0
187 -188 402 0
-187 -188 -402 0
189 190 -403 0
-189 190 403 0
189 -190 403 0
-189 -190 -403 0
191 192 -404 0
-191 192 404 0
191 -192 404 0
-191 -192 -404 0
193 194 -405 0
-193 194 405 0
193 -194 405 0
-193 -194 -405 0
195 196 -406 0
-195 196 406 0
195 -196 406 0
-195 -196 -406 0
197 198 -407 0
-197 198 407 0
197 -198 407 0
-197 -198 -407 0
199 200 -408 0
-199 200 408 0
199 -200 408 0
-199 -200 -408 0
201 202 -409 0
-201 202 409 0
201 -202 409 0
-201 -202 -409 0
203 204 -410 0
-203 204 410 0
203 -204 410 0
-203 -204 -410 0
205 206 -411 0
-205 206 411 0
205 -206 411 0
-205 -206 -411 0
207 208 -412 0
-207 208 412 0
207 -208 412 0
-207 -208 -412 0
209 210 -413 0
-209 210 413 0
209 -210 413 0
-209 -210 -413 0
211 212 -414 0
-211 212 414 0
211 -212 414 0
-211 -212 -414 0
213 214 -415 0
-213 214 415 0
213 -214 415 0
-213 -214 -415 0
215 216 -416 0
-215 216 416 0
215 -216 416 0
-215 -216 -416 0
217 218 -417 0
-217 218 417 0
217 -218 417 0
-217 -218 -417 0
219 220 -418 0
-219 220 418 0
219 -220 418 0
-219 -220 -418 0
221 222 -419 0
-221 222 419 0
221 -222 419 0
-221 -222 -419 0
223 224 -420 0
-223 224 420 0
223 -224 420 0
-223 -224 -420 0
225 226 -421 0
-225 226 421 0
225 -226 421 0
-225 -226 -421 0
227 228 -422 0
-227 228 422 0
227 -228 422 0
-227 -228 -422 0
229 230 -423 0
-229 230 423 0
229 -230 423 0
-229 -230 -423 0
231 232 -424 0
-231 232 424 0
231 -232 424 0
-231 -232 -424 0
233 234 -425 0
-233 234 425 0
233 -234 425 0
-233 -234 -425 0
235 236 -426 0
-235 236 426 0
235 -236 426 0
-235 -236 -426 0
237 238 -427 0
-237 238 427 0
237 -238 427 0
-237 -238 -427 0
239 240 -428 0
-239 240 428 0
239 -240 428 0
-239 -240 -428 0
241 242 -429 0
-241 242 429 0
241 -242 429 0
-241 -242 -429 0
243 244 -430 0
-243 244 430 0
243 -244 430 0
-243 -244 -430 0
245 246 -431 0
-245 246 431 0
245 -246 431 0
-245 -246 -431 0
247 248 -432 0
-247 248 432 0
247 -248 432 0
-247 -248 -432 0
249 250 -433 0
-249 250 433 0
249 -250 433 0
-249 -250 -433 0
251 252 -434 0
-251 252 434 0
251 -252 434 0
-251 -252 -434 0
253 254 -435 0
-253 254 435 0
253 -254 435 0
-253 -254 -435 0
255 256 -436 0
-255 256 436 0
255 -256 436 0
-255 -256 -436 0
257 258 -437 0
-257 258 437 0
257 -258 437 0
-257 -258 -437 0
259 260 -438 0
-259 260 438 0
259 -260 438 0
-259 -260 -438 0
261 262 -439 0
-261 262 439 0
261 -262 439 0
-261 -262 -439 0
263 264 -440 0
-263 264 440 0
263 -264 440 0
-263 -264 -440 0
265 266 -441 0
-265 266 441 0
265 -266 441 0
-265 -266 -441 0
267 268 -442 0
-267 268 442 0
267 -268 442 0
-267 -268 -442 0
269 270 -443 0
-269 270 443 0
269 -270 443 0
-269 -270 -443 0
271 272 -444 0
-271 272 444 0
271 -272 444 0
-271 -272 -444 0
273 274 -445 0
-273 274 445 0
273 -274 445 0
-273 -274 -445 0
275 276 -446 0
-275 276 446 0
275 -276 446 0
-275 -276 -446 0
277 278 -447 0
-277 278 447 0
277 -278 447 0
-277 -278 -447 0
279 280 -448 0
-279 280 448 0
279 -280 448 0
-279 -280 -448 0
281 282 -449 0
-281 282 449 0
281 -282 449 0
-281 -282 -449 0
283 284 -450 0
-283 284 450 0
283 -284 450 0
-283 -284 -450 0
285 286 -451 0
-285 286 451 0
285 -286 451 0
-285 -286 -451 0
287 288 -452 0
-287 288 452 0
287 -288 452 0
-287 -288 -452 0
289 290 -453 0
-289 290 453 0
289 -290 453 0
-289 -290 -453 0
291 292 -454 0
-291 292 454 0
291 -292 454 0
-291 -292 -454 0
293 294 -455 0
-293 294 455 0
293 -294 455 0
-293 -294 -455 0
295 296 -456 0
-295 296 456 0
295 -296 456 0
-295 -296 -456 0
297 298 -457 0
-297 298 457 0
297 -298 457 0
-297 -298 -457 0
299 300 -458 0
-299 300 458 0
299 -300 458 0
-299 -300 -458 0
301 302 -459 0
-301 302 459 0
301 -302 459 0
-301 -302 -459 0
303 304 -460 0
-303 304 460 0
303 -304 460 0
-303 -304 -460 0
309 310 -461 0
-309 310 461 0
309 -310 461 0
-309 -310 -461 0
311 312 -462 0
-311 312 462 0
311 -312 462 0
-311 -312 -462 0
313 314 -463 0
-313 314 463 0
313 -314 463 0
-313 -314 -463 0
315 316 -464 0
-315 316 464 0
315 -316 464 0
-315 -316 -464 0
317 318 -465 0
-317 318 465 0
317 -318 465 0
-317 -318 -465 0
319 320 -466 0
-319 320 466 0
319 -320 466 0
-319 -320 -466 0
321 322 -467 0
-321 322 467 0
321 -322 467 0
-321 -322 -467 0
323 324 -468 0
-323 324 468 0
323 -324 468 0
-323 -324 -468 0
325 326 -469 0
-325 326 469 0
325 -326 469 0
-325 -326 -469 0
327 328 -470 0
-327 328 470 0
327 -328 470 0
-327 -328 -470 0
329 330 -471 0
-329 330 471 0
329 -330 471 0
-329 -330 -471 0
331 332 -472 0
-331 332 472 0
331 -332 472 0
-331 -332 -472 0
333 334 -473 0
-333 334 473 0
333 -334 473 0
-333 -334 -473 0
335 336 -474 0
-335 336 474 0
335 -336 474 0
-335 -336 -474 0
337 338 -475 0
-337 338 475 0
337 -338 475 0
-337 -338 -475 0
339 340 -476 0
-339 340 476 0
339 -340 476 0
-339 -340 -476 0
341 342 -477 0
-341 342 477 0
341 -342 477 0
-341 -342 -477 0
343 344 -478 0
-343 344 478 0
343 -344 478 0
-343 -344 -478 0
345 346 -479 0
-345 346 479 0
345 -346 479 0
-345 -346 -479 0
347 348 -480 0
-347 348 480 0
347 -348 480 0
-347 -348 -480 0
349 350 -481 0
-349 350 481 0
349 -350 481 0
-349 -350 -481 0
351 352 -482 0
-351 352 482 0
351 -352 482 0
-351 -352 -482 0
353 354 -483 0
-353 354 483 0
353 -354 483 0
-353 -354 -483 0
355 356 -484 0
-355 356 484 0
355 -356 484 0
-355 -356 -484 0
357 358 -485 0
-357 358 485 0
357 -358 485 0
-357 -358 -485 0
359 360 -486 0
-359 360 486 0
359 -360 486 0
-359 -360 -486 0
361 362 -487 0
-361 362 487 0
361 -362 487 0
-361 -362 -487 0
363 364 -488 0
-363 364 488 0
363 -364 488 0
-363 -364 -488 0
365 366 -489 0
-365 366 489 0
365 -366 489 0
-365 -366 -489 0
367 368 -490 0
-367 368 490 0
367 -368 490 0
-367 -368 -490 0
369 370 -491 0
-369 370 491 0
369 -370 491 0
-369 -370 -491 0
371 372 -492 0
-371 372 492 0
371 -372 492 0
-371 -372 -492 0
373 374 -493 0
-373 374 493 0
373 -374 493 0
-373 -374 -493 0
375 376 -494 0
-375 376 494 0
375 -376 494 0
-375 -376 -494 0
377 378 -495 0
-377 378 495 0
377 -378 495 0
-377 -378 -495 0
379 380 -496 0
-379 380 496 0
379 -380 496 0
-379 -380 -496 0
381 382 -497 0
-381 382 497 0
381 -382 497 0
-381 -382 -497 0
383 384 -498 0
-383 384 498 0
383 -384 498 0
-383 -384 -498 0
385 386 -499 0
-385 386 499 0
385 -386 499 0
-385 -386 -499 0
387 388 -500 0
-387 388 500 0
387 -388 500 0
-387 -388 -500 0
389 390 -501 0
-389 390 501 0
389 -390 501 0
-389 -390 -501 0
391 392 -502 0
-391 392 502 0
391 -392 502 0
-391 -392 -502 0
393 394 -503 0
-393 394 503 0
393 -394 503 0
-393 -394 -503 0
395 396 -504 0
-395 396 504 0
395 -396 504 0
-395 -396 -504 0
397 398 -505 0
-397 398 505 0
397 -398 505 0
-397 -398 -505 0
399 400 -506 0
-399 400 506 0
399 -400 506 0
-399 -400 -506 0
401 402 -507 0
-401 402 507 0
401 -402 507 0
-401 -402 -507 0
403 404 -508 0
-403 404 508 0
403 -404 508 0
-403 -404 -508 0
405 406 -509 0
-405 406 509 0
405 -406 509 0
-405 -406 -509 0
407 408 -510 0
-407 408 510 0
407 -408 510 0
-407 -408 -510 0
409 410 -511 0
-409 410 511 0
409 -410 511 0
-409 -410 -511 0
411 412 -512 0
-411 412 512 0
411 -412 512 0
-411 -412 -512 0
413 414 -513 0
-413 414 513 0
413 -414 513 0
-413 -414 -513 0
415 416 -514 0
-415 416 514 0
415 -416 514 0
-415 -416 -514 0
417 418 -515 0
-417 418 515 0
417 -418 515 0
-417 -418 -515 0
419 420 -516 0
-419 420 516 0
419 -420 516 0
-419 -420 -516 0
421 422 -517 0
-421 422 517 0
421 -422 517 0
-421 -422 -517 0
423 424 -518 0
-423 424 518 0
423 -424 518 0
-423 -424 -518 0
425 426 -519 0
-425 426 519 0
425 -426 519 0
-425 -426 -519 0
427 428 -520 0
-427 428 520 0
427 -428 520 0
-427 -428 -520 0
429 430 -521 0
-429 430 521 0
429 -430 521 0
-429 -430 -521 0
431 432 -522 0
-431 432 522 0
431 -432 522 0
-431 -432 -522 0
433 434 -523 0
-433 434 523 0
433 -434 523 0
-433 -434 -523 0
435 436 -524 0
-435 436 524 0
435 -436 524 0
-435 -436 -524 0
437 438 -525 0
-437 438 525 0
437 -438 525 0
-437 -438 -525 0
439 440 -526 0
-439 440 526 0
439 -440 526 0
-439 -440 -526 0
441 442 -527 0
-441 442 527 0
441 -442 527 0
-441 -442 -527 0
443 444 -528 0
-443 444 528 0
443 -444 528 0
-443 -444 -528 0
445 446 -529 0
-445 446 529 0
445 -446 529 0
-445 -446 -529 0
447 448 -530 0
-447 448 530 0
447 -448 530 0
-447 -448 -530 0
449 450 -531 0
-449 450 531 0
449 -450 531 0
-449 -450 -531 0
451 452 -532 0
-451 452 532 0
451 -452 532 0
-451 -452 -532 0
453 454 -533 0
-453 454 533 0
453 -454 533 0
-453 -454 -533 0
455 456 -534 0
-455 456 534 0
455 -456 534 0
-455 -456 -534 0
457 458 -535 0
-457 458 535 0
457 -458 535 0
-457 -458 -535 0
459 460 -536 0
-459 460 536 0
459 -460 536 0
-459 -460 -536 0
461 462 -537 0
-461 462 537 0
461 -462 537 0
-461 -462 -537 0
463 464 -538 0
-463 464 538 0
463 -464 538 0
-463 -464 -538 0
465 466 -539 0
-465 466 539 0
465 -466 539 0
-465 -466 -539 0
467 468 -540 0
-467 468 540 0
467 -468 540 0
-467 -468 -540 0
469 470 -541 0
-469 470 541 0
469 -470 541 0
-469 -470 -541 0
471 472 -542 0
-471 472 542 0
471 -472 542 0
-471 -472 -542 0
473 474 -543 0
-473 474 543 0
473 -474 543 0
-473 -474 -543 0
475 476 -544 0
-475 476 544 0
475 -476 544 0
-475 -476 -544 0
477 478 -545 0
-477 478 545 0
477 -478 545 0
-477 -478 -545 0
479 480 -546 0
-479 480 546 0
479 -480 546 0
-479 -480 -546 0
481 482 -547 0
-481 482 547 0
481 -482 547 0
-481 -482 -547 0
483 484 -548 0
-483 484 548 0
483 -484 548 0
-483 -484 -548 0
485 486 -549 0
-485 486 549 0
485 -486 549 0
-485 -486 -549 0
487 488 -550 0
-487 488 550 0
487 -488 550 0
-487 -488 -550 0
489 490 -551 0
-489 490 551 0
489 -490 551 0
-489 -490 -551 0
491 492 -552 0
-491 492 552 0
491 -492 552 0
-491 -492 -552 0
493 494 -553 0
-493 494 553 0
493 -494 553 0
-493 -494 -553 0
495 496 -554 0
-495 496 554 0
495 -496 554 0
-495 -496 -554 0
497 498 -555 0
-497 498 555 0
497 -498 555 0
-497 -498 -555 0
499 500 -556 0
-499 500 556 0
499 -500 556 0
-499 -500 -556 0
501 502 -557 0
-501 502 557 0
501 -502 557 0
-501 -502 -557 0
503 504 -558 0
-503 504 558 0
503 -504 558 0
-503 -504 -558 0
505 506 -559 0
-505 506 559 0
505 -506 559 0
-505 -506 -559 0
507 508 -560 0
-507 508 560 0
507 -508 560 0
-507 -508 -560 0
509 510 -561 0
-509 510 561 0
509 -510 561 0
-509 -510 -561 0
511 512 -562 0
-511 512 562 0
511 -512 562 0
-511 -512 -562 0
513 514 -563 0
-513 514 563 0
513 -514 563 0
-513 -514 -563 0
515 516 -564 0
-515 516 564 0
515 -516 564 0
-515 -516 -564 0
517 518 -565 0
-517 518 565 0
517 -518 565 0
-517 -518 -565 0
519 520 -566 0
-519 520 566 0
519 -520 566 0
-519 -520 -566 0
521 522 -567 0
-521 522 567 0
521 -522 567 0
-521 -522 -567 0
523 524 -568 0
-523 524 568 0
523 -524 568 0
-523 -524 -568 0
525 526 -569 0
-525 526 569 0
525 -526 569 0
-525 -526 -569 0
527 528 -570 0
-527 528 570 0
527 -528 570 0
-527 -528 -570 0
529 530 -571 0
-529 530 571 0
529 -530 571 0
-529 -530 -571 0
531 532 -572 0
-531 532 572 0
531 -532 572 0
-531 -532 -572 0
533 534 -573 0
-533 534 573 0
533 -534 573 0
-533 -534 -573 0
535 536 -574 0
-535 536 574 0
535 -536 574 0
-535 -536 -574 0
537 538 -575 0
-537 538 575 0
537 -538 575 0
-537 -538 -575 0
539 540 -576 0
-539 540 576 0
539 -540 576 0
-539 -540 -576 0
541 542 -577 0
-541 542 577 0
541 -542 577 0
-541 -542 -577 0
543 544 -578 0
-543 544 578 0
543 -544 578 0
-543 -544 -578 0
545 546 -579 0
-545 546 579 0
545 -546 579 0
-545 -546 -579 0
547 548 -580 0
-547 548 580 0
547 -548 580 0
-547 -548 -580 0
549 550 -581 0
-549 550 581 0
549 -550 581 0
-549 -550 -581 0
551 552 -582 0
-551 552 582 0
551 -552 582 0
-551 -552 -582 0
553 554 -583 0
-553 554 583 0
553 -554 583 0
-553 -554 -583 0
555 556 -584 0
-555 556 584 0
555 -556 584 0
-555 -556 -584 0
557 558 -585 0
-557 558 585 0
557 -558 585 0
-557 -558 -585 0
559 560 -586 0
-559 560 586 0
559 -560 586 0
-559 -560 -586 0
561 562 -587 0
-561 562 587 0
561 -562 587 0
-561 -562 -587 0
563 564 -588 0
-563 564 588 0
563 -564 588 0
-563 -564 -588 0
565 566 -589 0
-565 566 589 0
565 -566 589 0
-565 -566 -589 0
567 568 -590 0
-567 568 590 0
567 -568 590 0
-567 -568 -590 0
569 570 -591 0
-569 570 591 0
569 -570 591 0
-569 -570 -591 0
571 572 -592 0
-571 572 592 0
571 -572 592 0
-571 -572 -592 0
573 574 -593 0
-573 574 593 0
573 -574 593 0
-573 -574 -593 0
575 576 -594 0
-575 576 594 0
575 -576 594 0
-575 -576 -594 0
577 578 -595 0
-577 578 595 0
577 -578 595 0
-577 -578 -595 0
579 580 -596 0
-579 580 596 0
579 -580 596 0
-579 -580 -596 0
581 582 -597 0
-581 582 597 0
581 -582 597 0
-581 -582 -597 0
583 584 -598 0
-583 584 598 0
583 -584 598 0
-583 -584 -598 0
585 586 -599 0
-585 586 599 0
585 -586 599 0
-585 -586 -599 0
587 588 -600 0
-587 588 600 0
587 -588 600 0
-587 -588 -600 0
589 590 -601 0
-589 590 601 0
589 -590 601 0
-589 -590 -601 0
591 592 -602 0
-591 592 602 0
591 -592 602 0
-591 -592 -602 0
593 305 -603 0
-593 305 603 0
593 -305 603 0
-593 -305 -603 0
594 595 -604 0
-594 595 604 0
594 -595 604 0
-594 -595 -604 0
596 597 -605 0
-596 597 605 0
596 -597 605 0
-596 -597 -605 0
598 599 -606 0
-598 599 606 0
598 -599 606 0
-598 -599 -606 0
600 601 -607 0
-600 601 607 0
600 -601 607 0
-600 -601 -607 0
602 603 -608 0
-602 603 608 0
602 -603 608 0
-602 -603 -608 0
604 605 -609 0
-604 605 609 0
604 -605 609 0
-604 -605 -609 0
606 607 -610 0
-606 607 610 0
606 -607 610 0
-606 -607 -610 0
609 610 -611 0
-609 610 611 0
609 -610 611 0
-609 -610 -611 0
611 608 -306 0
-611 608 306 0
611 -608 306 0
-611 -608 -306 0
